p tw 30 45
1 3
1 14
1 20
2 18
2 23
2 29
3 8
3 10
4 5
4 13
4 30
5 9
5 30
6 15
6 16
6 17
7 21
7 27
7 28
8 14
8 24
9 16
9 29
10 17
10 25
11 22
11 26
11 27
12 21
12 22
12 27
13 14
13 24
15 22
15 24
16 28
17 25
18 19
18 23
19 20
19 29
20 25
21 30
23 26
26 28
